param base_demand :=
1 168605
2 10239
3 3529
4 589
5 1517
6 593
7 2661
8 1028
9 828
10 1681
11 1920
12 2120
13 1455
14 545
15 1854
16 2660
17 1573
18 570
19 1480
20 1116
21 2201
22  2586
23 1246
24 474 
25 1324
26 1981
27 1008
28 1365
29 575
30 760
;